NAME: random-82-10942
TYPE: TSP
COMMENT: size=82 seed=10942
DIMENSION: 166
EDGE_WEIGHT_TYPE: EUC_2D
NODE_COORD_SECTION
+0 194 525
-0 194 525
+1 697 659
-1 890 160
+2 962 9
-2 668 529
+3 940 998
-3 906 461
+4 113 370
-4 115 547
+5 930 640
-5 610 434
+6 594 931
-6 376 591
+7 175 786
-7 254 759
+8 767 721
-8 82 909
+9 684 786
-9 997 323
+10 73 127
-10 377 291
+11 54 425
-11 359 762
+12 747 869
-12 200 257
+13 89 72
-13 899 393
+14 827 798
-14 904 312
+15 118 932
-15 255 578
+16 177 491
-16 270 512
+17 386 404
-17 450 761
+18 113 540
-18 818 381
+19 834 356
-19 546 929
+20 451 511
-20 587 91
+21 514 154
-21 325 329
+22 250 582
-22 599 769
+23 230 292
-23 235 540
+24 796 525
-24 534 33
+25 229 981
-25 608 679
+26 800 251
-26 721 407
+27 939 830
-27 587 613
+28 794 188
-28 631 905
+29 808 289
-29 316 835
+30 155 106
-30 844 685
+31 872 254
-31 932 885
+32 239 526
-32 229 132
+33 576 199
-33 527 808
+34 894 446
-34 754 698
+35 748 64
-35 201 907
+36 199 796
-36 383 511
+37 144 437
-37 805 464
+38 277 803
-38 697 471
+39 496 398
-39 263 503
+40 849 841
-40 273 59
+41 626 246
-41 338 257
+42 323 645
-42 447 718
+43 770 418
-43 329 721
+44 204 512
-44 723 367
+45 542 411
-45 627 220
+46 564 985
-46 140 255
+47 674 547
-47 716 64
+48 227 515
-48 60 149
+49 941 181
-49 489 303
+50 762 989
-50 309 411
+51 706 975
-51 162 770
+52 441 64
-52 356 897
+53 492 172
-53 987 752
+54 769 824
-54 457 174
+55 552 288
-55 647 681
+56 32 88
-56 973 888
+57 351 779
-57 746 34
+58 251 547
-58 441 463
+59 768 770
-59 68 141
+60 245 893
-60 5 230
+61 381 726
-61 788 776
+62 552 434
-62 166 173
+63 222 348
-63 918 968
+64 77 40
-64 687 844
+65 919 701
-65 480 142
+66 845 530
-66 535 528
+67 12 52
-67 168 454
+68 945 737
-68 557 145
+69 916 849
-69 666 11
+70 458 523
-70 462 348
+71 278 959
-71 645 898
+72 404 513
-72 117 443
+73 856 975
-73 342 330
+74 366 909
-74 405 480
+75 80 22
-75 185 62
+76 601 633
-76 39 734
+77 993 168
-77 442 154
+78 874 441
-78 947 848
+79 739 219
-79 506 824
+80 492 730
-80 644 43
+81 680 203
-81 486 129
+82 6 938
-82 534 369
PRECEDENCE_SECTION
+0 -0
+1 -1
+2 -2
+3 -3
+4 -4
+5 -5
+6 -6
+7 -7
+8 -8
+9 -9
+10 -10
+11 -11
+12 -12
+13 -13
+14 -14
+15 -15
+16 -16
+17 -17
+18 -18
+19 -19
+20 -20
+21 -21
+22 -22
+23 -23
+24 -24
+25 -25
+26 -26
+27 -27
+28 -28
+29 -29
+30 -30
+31 -31
+32 -32
+33 -33
+34 -34
+35 -35
+36 -36
+37 -37
+38 -38
+39 -39
+40 -40
+41 -41
+42 -42
+43 -43
+44 -44
+45 -45
+46 -46
+47 -47
+48 -48
+49 -49
+50 -50
+51 -51
+52 -52
+53 -53
+54 -54
+55 -55
+56 -56
+57 -57
+58 -58
+59 -59
+60 -60
+61 -61
+62 -62
+63 -63
+64 -64
+65 -65
+66 -66
+67 -67
+68 -68
+69 -69
+70 -70
+71 -71
+72 -72
+73 -73
+74 -74
+75 -75
+76 -76
+77 -77
+78 -78
+79 -79
+80 -80
+81 -81
+82 -82
EOF
